c *********************************
c * Circuit generated by BenCGen
c *
c * RippleCarryAdder_79_79_79_InOutT
c *
c * Ports with 1 gate(s): 1
c * Ports with 2 gate(s): 396
c * Total gates: 397
c *********************************
p cnf 555 1348
1 240 0
-1 -240 0
1 -239 0
240 -239 0
-1 -240 239 0
1 80 -242 0
-1 80 242 0
1 -80 242 0
-1 -80 -242 0
242 239 -159 0
-242 239 159 0
242 -239 159 0
-242 -239 -159 0
239 -243 0
242 -243 0
-239 -242 243 0
80 -244 0
1 -244 0
-80 -1 244 0
-243 241 0
-244 241 0
243 244 -241 0
2 81 -246 0
-2 81 246 0
2 -81 246 0
-2 -81 -246 0
246 241 -160 0
-246 241 160 0
246 -241 160 0
-246 -241 -160 0
241 -247 0
246 -247 0
-241 -246 247 0
81 -248 0
2 -248 0
-81 -2 248 0
-247 245 0
-248 245 0
247 248 -245 0
3 82 -250 0
-3 82 250 0
3 -82 250 0
-3 -82 -250 0
250 245 -161 0
-250 245 161 0
250 -245 161 0
-250 -245 -161 0
245 -251 0
250 -251 0
-245 -250 251 0
82 -252 0
3 -252 0
-82 -3 252 0
-251 249 0
-252 249 0
251 252 -249 0
4 83 -254 0
-4 83 254 0
4 -83 254 0
-4 -83 -254 0
254 249 -162 0
-254 249 162 0
254 -249 162 0
-254 -249 -162 0
249 -255 0
254 -255 0
-249 -254 255 0
83 -256 0
4 -256 0
-83 -4 256 0
-255 253 0
-256 253 0
255 256 -253 0
5 84 -258 0
-5 84 258 0
5 -84 258 0
-5 -84 -258 0
258 253 -163 0
-258 253 163 0
258 -253 163 0
-258 -253 -163 0
253 -259 0
258 -259 0
-253 -258 259 0
84 -260 0
5 -260 0
-84 -5 260 0
-259 257 0
-260 257 0
259 260 -257 0
6 85 -262 0
-6 85 262 0
6 -85 262 0
-6 -85 -262 0
262 257 -164 0
-262 257 164 0
262 -257 164 0
-262 -257 -164 0
257 -263 0
262 -263 0
-257 -262 263 0
85 -264 0
6 -264 0
-85 -6 264 0
-263 261 0
-264 261 0
263 264 -261 0
7 86 -266 0
-7 86 266 0
7 -86 266 0
-7 -86 -266 0
266 261 -165 0
-266 261 165 0
266 -261 165 0
-266 -261 -165 0
261 -267 0
266 -267 0
-261 -266 267 0
86 -268 0
7 -268 0
-86 -7 268 0
-267 265 0
-268 265 0
267 268 -265 0
8 87 -270 0
-8 87 270 0
8 -87 270 0
-8 -87 -270 0
270 265 -166 0
-270 265 166 0
270 -265 166 0
-270 -265 -166 0
265 -271 0
270 -271 0
-265 -270 271 0
87 -272 0
8 -272 0
-87 -8 272 0
-271 269 0
-272 269 0
271 272 -269 0
9 88 -274 0
-9 88 274 0
9 -88 274 0
-9 -88 -274 0
274 269 -167 0
-274 269 167 0
274 -269 167 0
-274 -269 -167 0
269 -275 0
274 -275 0
-269 -274 275 0
88 -276 0
9 -276 0
-88 -9 276 0
-275 273 0
-276 273 0
275 276 -273 0
10 89 -278 0
-10 89 278 0
10 -89 278 0
-10 -89 -278 0
278 273 -168 0
-278 273 168 0
278 -273 168 0
-278 -273 -168 0
273 -279 0
278 -279 0
-273 -278 279 0
89 -280 0
10 -280 0
-89 -10 280 0
-279 277 0
-280 277 0
279 280 -277 0
11 90 -282 0
-11 90 282 0
11 -90 282 0
-11 -90 -282 0
282 277 -169 0
-282 277 169 0
282 -277 169 0
-282 -277 -169 0
277 -283 0
282 -283 0
-277 -282 283 0
90 -284 0
11 -284 0
-90 -11 284 0
-283 281 0
-284 281 0
283 284 -281 0
12 91 -286 0
-12 91 286 0
12 -91 286 0
-12 -91 -286 0
286 281 -170 0
-286 281 170 0
286 -281 170 0
-286 -281 -170 0
281 -287 0
286 -287 0
-281 -286 287 0
91 -288 0
12 -288 0
-91 -12 288 0
-287 285 0
-288 285 0
287 288 -285 0
13 92 -290 0
-13 92 290 0
13 -92 290 0
-13 -92 -290 0
290 285 -171 0
-290 285 171 0
290 -285 171 0
-290 -285 -171 0
285 -291 0
290 -291 0
-285 -290 291 0
92 -292 0
13 -292 0
-92 -13 292 0
-291 289 0
-292 289 0
291 292 -289 0
14 93 -294 0
-14 93 294 0
14 -93 294 0
-14 -93 -294 0
294 289 -172 0
-294 289 172 0
294 -289 172 0
-294 -289 -172 0
289 -295 0
294 -295 0
-289 -294 295 0
93 -296 0
14 -296 0
-93 -14 296 0
-295 293 0
-296 293 0
295 296 -293 0
15 94 -298 0
-15 94 298 0
15 -94 298 0
-15 -94 -298 0
298 293 -173 0
-298 293 173 0
298 -293 173 0
-298 -293 -173 0
293 -299 0
298 -299 0
-293 -298 299 0
94 -300 0
15 -300 0
-94 -15 300 0
-299 297 0
-300 297 0
299 300 -297 0
16 95 -302 0
-16 95 302 0
16 -95 302 0
-16 -95 -302 0
302 297 -174 0
-302 297 174 0
302 -297 174 0
-302 -297 -174 0
297 -303 0
302 -303 0
-297 -302 303 0
95 -304 0
16 -304 0
-95 -16 304 0
-303 301 0
-304 301 0
303 304 -301 0
17 96 -306 0
-17 96 306 0
17 -96 306 0
-17 -96 -306 0
306 301 -175 0
-306 301 175 0
306 -301 175 0
-306 -301 -175 0
301 -307 0
306 -307 0
-301 -306 307 0
96 -308 0
17 -308 0
-96 -17 308 0
-307 305 0
-308 305 0
307 308 -305 0
18 97 -310 0
-18 97 310 0
18 -97 310 0
-18 -97 -310 0
310 305 -176 0
-310 305 176 0
310 -305 176 0
-310 -305 -176 0
305 -311 0
310 -311 0
-305 -310 311 0
97 -312 0
18 -312 0
-97 -18 312 0
-311 309 0
-312 309 0
311 312 -309 0
19 98 -314 0
-19 98 314 0
19 -98 314 0
-19 -98 -314 0
314 309 -177 0
-314 309 177 0
314 -309 177 0
-314 -309 -177 0
309 -315 0
314 -315 0
-309 -314 315 0
98 -316 0
19 -316 0
-98 -19 316 0
-315 313 0
-316 313 0
315 316 -313 0
20 99 -318 0
-20 99 318 0
20 -99 318 0
-20 -99 -318 0
318 313 -178 0
-318 313 178 0
318 -313 178 0
-318 -313 -178 0
313 -319 0
318 -319 0
-313 -318 319 0
99 -320 0
20 -320 0
-99 -20 320 0
-319 317 0
-320 317 0
319 320 -317 0
21 100 -322 0
-21 100 322 0
21 -100 322 0
-21 -100 -322 0
322 317 -179 0
-322 317 179 0
322 -317 179 0
-322 -317 -179 0
317 -323 0
322 -323 0
-317 -322 323 0
100 -324 0
21 -324 0
-100 -21 324 0
-323 321 0
-324 321 0
323 324 -321 0
22 101 -326 0
-22 101 326 0
22 -101 326 0
-22 -101 -326 0
326 321 -180 0
-326 321 180 0
326 -321 180 0
-326 -321 -180 0
321 -327 0
326 -327 0
-321 -326 327 0
101 -328 0
22 -328 0
-101 -22 328 0
-327 325 0
-328 325 0
327 328 -325 0
23 102 -330 0
-23 102 330 0
23 -102 330 0
-23 -102 -330 0
330 325 -181 0
-330 325 181 0
330 -325 181 0
-330 -325 -181 0
325 -331 0
330 -331 0
-325 -330 331 0
102 -332 0
23 -332 0
-102 -23 332 0
-331 329 0
-332 329 0
331 332 -329 0
24 103 -334 0
-24 103 334 0
24 -103 334 0
-24 -103 -334 0
334 329 -182 0
-334 329 182 0
334 -329 182 0
-334 -329 -182 0
329 -335 0
334 -335 0
-329 -334 335 0
103 -336 0
24 -336 0
-103 -24 336 0
-335 333 0
-336 333 0
335 336 -333 0
25 104 -338 0
-25 104 338 0
25 -104 338 0
-25 -104 -338 0
338 333 -183 0
-338 333 183 0
338 -333 183 0
-338 -333 -183 0
333 -339 0
338 -339 0
-333 -338 339 0
104 -340 0
25 -340 0
-104 -25 340 0
-339 337 0
-340 337 0
339 340 -337 0
26 105 -342 0
-26 105 342 0
26 -105 342 0
-26 -105 -342 0
342 337 -184 0
-342 337 184 0
342 -337 184 0
-342 -337 -184 0
337 -343 0
342 -343 0
-337 -342 343 0
105 -344 0
26 -344 0
-105 -26 344 0
-343 341 0
-344 341 0
343 344 -341 0
27 106 -346 0
-27 106 346 0
27 -106 346 0
-27 -106 -346 0
346 341 -185 0
-346 341 185 0
346 -341 185 0
-346 -341 -185 0
341 -347 0
346 -347 0
-341 -346 347 0
106 -348 0
27 -348 0
-106 -27 348 0
-347 345 0
-348 345 0
347 348 -345 0
28 107 -350 0
-28 107 350 0
28 -107 350 0
-28 -107 -350 0
350 345 -186 0
-350 345 186 0
350 -345 186 0
-350 -345 -186 0
345 -351 0
350 -351 0
-345 -350 351 0
107 -352 0
28 -352 0
-107 -28 352 0
-351 349 0
-352 349 0
351 352 -349 0
29 108 -354 0
-29 108 354 0
29 -108 354 0
-29 -108 -354 0
354 349 -187 0
-354 349 187 0
354 -349 187 0
-354 -349 -187 0
349 -355 0
354 -355 0
-349 -354 355 0
108 -356 0
29 -356 0
-108 -29 356 0
-355 353 0
-356 353 0
355 356 -353 0
30 109 -358 0
-30 109 358 0
30 -109 358 0
-30 -109 -358 0
358 353 -188 0
-358 353 188 0
358 -353 188 0
-358 -353 -188 0
353 -359 0
358 -359 0
-353 -358 359 0
109 -360 0
30 -360 0
-109 -30 360 0
-359 357 0
-360 357 0
359 360 -357 0
31 110 -362 0
-31 110 362 0
31 -110 362 0
-31 -110 -362 0
362 357 -189 0
-362 357 189 0
362 -357 189 0
-362 -357 -189 0
357 -363 0
362 -363 0
-357 -362 363 0
110 -364 0
31 -364 0
-110 -31 364 0
-363 361 0
-364 361 0
363 364 -361 0
32 111 -366 0
-32 111 366 0
32 -111 366 0
-32 -111 -366 0
366 361 -190 0
-366 361 190 0
366 -361 190 0
-366 -361 -190 0
361 -367 0
366 -367 0
-361 -366 367 0
111 -368 0
32 -368 0
-111 -32 368 0
-367 365 0
-368 365 0
367 368 -365 0
33 112 -370 0
-33 112 370 0
33 -112 370 0
-33 -112 -370 0
370 365 -191 0
-370 365 191 0
370 -365 191 0
-370 -365 -191 0
365 -371 0
370 -371 0
-365 -370 371 0
112 -372 0
33 -372 0
-112 -33 372 0
-371 369 0
-372 369 0
371 372 -369 0
34 113 -374 0
-34 113 374 0
34 -113 374 0
-34 -113 -374 0
374 369 -192 0
-374 369 192 0
374 -369 192 0
-374 -369 -192 0
369 -375 0
374 -375 0
-369 -374 375 0
113 -376 0
34 -376 0
-113 -34 376 0
-375 373 0
-376 373 0
375 376 -373 0
35 114 -378 0
-35 114 378 0
35 -114 378 0
-35 -114 -378 0
378 373 -193 0
-378 373 193 0
378 -373 193 0
-378 -373 -193 0
373 -379 0
378 -379 0
-373 -378 379 0
114 -380 0
35 -380 0
-114 -35 380 0
-379 377 0
-380 377 0
379 380 -377 0
36 115 -382 0
-36 115 382 0
36 -115 382 0
-36 -115 -382 0
382 377 -194 0
-382 377 194 0
382 -377 194 0
-382 -377 -194 0
377 -383 0
382 -383 0
-377 -382 383 0
115 -384 0
36 -384 0
-115 -36 384 0
-383 381 0
-384 381 0
383 384 -381 0
37 116 -386 0
-37 116 386 0
37 -116 386 0
-37 -116 -386 0
386 381 -195 0
-386 381 195 0
386 -381 195 0
-386 -381 -195 0
381 -387 0
386 -387 0
-381 -386 387 0
116 -388 0
37 -388 0
-116 -37 388 0
-387 385 0
-388 385 0
387 388 -385 0
38 117 -390 0
-38 117 390 0
38 -117 390 0
-38 -117 -390 0
390 385 -196 0
-390 385 196 0
390 -385 196 0
-390 -385 -196 0
385 -391 0
390 -391 0
-385 -390 391 0
117 -392 0
38 -392 0
-117 -38 392 0
-391 389 0
-392 389 0
391 392 -389 0
39 118 -394 0
-39 118 394 0
39 -118 394 0
-39 -118 -394 0
394 389 -197 0
-394 389 197 0
394 -389 197 0
-394 -389 -197 0
389 -395 0
394 -395 0
-389 -394 395 0
118 -396 0
39 -396 0
-118 -39 396 0
-395 393 0
-396 393 0
395 396 -393 0
40 119 -398 0
-40 119 398 0
40 -119 398 0
-40 -119 -398 0
398 393 -198 0
-398 393 198 0
398 -393 198 0
-398 -393 -198 0
393 -399 0
398 -399 0
-393 -398 399 0
119 -400 0
40 -400 0
-119 -40 400 0
-399 397 0
-400 397 0
399 400 -397 0
41 120 -402 0
-41 120 402 0
41 -120 402 0
-41 -120 -402 0
402 397 -199 0
-402 397 199 0
402 -397 199 0
-402 -397 -199 0
397 -403 0
402 -403 0
-397 -402 403 0
120 -404 0
41 -404 0
-120 -41 404 0
-403 401 0
-404 401 0
403 404 -401 0
42 121 -406 0
-42 121 406 0
42 -121 406 0
-42 -121 -406 0
406 401 -200 0
-406 401 200 0
406 -401 200 0
-406 -401 -200 0
401 -407 0
406 -407 0
-401 -406 407 0
121 -408 0
42 -408 0
-121 -42 408 0
-407 405 0
-408 405 0
407 408 -405 0
43 122 -410 0
-43 122 410 0
43 -122 410 0
-43 -122 -410 0
410 405 -201 0
-410 405 201 0
410 -405 201 0
-410 -405 -201 0
405 -411 0
410 -411 0
-405 -410 411 0
122 -412 0
43 -412 0
-122 -43 412 0
-411 409 0
-412 409 0
411 412 -409 0
44 123 -414 0
-44 123 414 0
44 -123 414 0
-44 -123 -414 0
414 409 -202 0
-414 409 202 0
414 -409 202 0
-414 -409 -202 0
409 -415 0
414 -415 0
-409 -414 415 0
123 -416 0
44 -416 0
-123 -44 416 0
-415 413 0
-416 413 0
415 416 -413 0
45 124 -418 0
-45 124 418 0
45 -124 418 0
-45 -124 -418 0
418 413 -203 0
-418 413 203 0
418 -413 203 0
-418 -413 -203 0
413 -419 0
418 -419 0
-413 -418 419 0
124 -420 0
45 -420 0
-124 -45 420 0
-419 417 0
-420 417 0
419 420 -417 0
46 125 -422 0
-46 125 422 0
46 -125 422 0
-46 -125 -422 0
422 417 -204 0
-422 417 204 0
422 -417 204 0
-422 -417 -204 0
417 -423 0
422 -423 0
-417 -422 423 0
125 -424 0
46 -424 0
-125 -46 424 0
-423 421 0
-424 421 0
423 424 -421 0
47 126 -426 0
-47 126 426 0
47 -126 426 0
-47 -126 -426 0
426 421 -205 0
-426 421 205 0
426 -421 205 0
-426 -421 -205 0
421 -427 0
426 -427 0
-421 -426 427 0
126 -428 0
47 -428 0
-126 -47 428 0
-427 425 0
-428 425 0
427 428 -425 0
48 127 -430 0
-48 127 430 0
48 -127 430 0
-48 -127 -430 0
430 425 -206 0
-430 425 206 0
430 -425 206 0
-430 -425 -206 0
425 -431 0
430 -431 0
-425 -430 431 0
127 -432 0
48 -432 0
-127 -48 432 0
-431 429 0
-432 429 0
431 432 -429 0
49 128 -434 0
-49 128 434 0
49 -128 434 0
-49 -128 -434 0
434 429 -207 0
-434 429 207 0
434 -429 207 0
-434 -429 -207 0
429 -435 0
434 -435 0
-429 -434 435 0
128 -436 0
49 -436 0
-128 -49 436 0
-435 433 0
-436 433 0
435 436 -433 0
50 129 -438 0
-50 129 438 0
50 -129 438 0
-50 -129 -438 0
438 433 -208 0
-438 433 208 0
438 -433 208 0
-438 -433 -208 0
433 -439 0
438 -439 0
-433 -438 439 0
129 -440 0
50 -440 0
-129 -50 440 0
-439 437 0
-440 437 0
439 440 -437 0
51 130 -442 0
-51 130 442 0
51 -130 442 0
-51 -130 -442 0
442 437 -209 0
-442 437 209 0
442 -437 209 0
-442 -437 -209 0
437 -443 0
442 -443 0
-437 -442 443 0
130 -444 0
51 -444 0
-130 -51 444 0
-443 441 0
-444 441 0
443 444 -441 0
52 131 -446 0
-52 131 446 0
52 -131 446 0
-52 -131 -446 0
446 441 -210 0
-446 441 210 0
446 -441 210 0
-446 -441 -210 0
441 -447 0
446 -447 0
-441 -446 447 0
131 -448 0
52 -448 0
-131 -52 448 0
-447 445 0
-448 445 0
447 448 -445 0
53 132 -450 0
-53 132 450 0
53 -132 450 0
-53 -132 -450 0
450 445 -211 0
-450 445 211 0
450 -445 211 0
-450 -445 -211 0
445 -451 0
450 -451 0
-445 -450 451 0
132 -452 0
53 -452 0
-132 -53 452 0
-451 449 0
-452 449 0
451 452 -449 0
54 133 -454 0
-54 133 454 0
54 -133 454 0
-54 -133 -454 0
454 449 -212 0
-454 449 212 0
454 -449 212 0
-454 -449 -212 0
449 -455 0
454 -455 0
-449 -454 455 0
133 -456 0
54 -456 0
-133 -54 456 0
-455 453 0
-456 453 0
455 456 -453 0
55 134 -458 0
-55 134 458 0
55 -134 458 0
-55 -134 -458 0
458 453 -213 0
-458 453 213 0
458 -453 213 0
-458 -453 -213 0
453 -459 0
458 -459 0
-453 -458 459 0
134 -460 0
55 -460 0
-134 -55 460 0
-459 457 0
-460 457 0
459 460 -457 0
56 135 -462 0
-56 135 462 0
56 -135 462 0
-56 -135 -462 0
462 457 -214 0
-462 457 214 0
462 -457 214 0
-462 -457 -214 0
457 -463 0
462 -463 0
-457 -462 463 0
135 -464 0
56 -464 0
-135 -56 464 0
-463 461 0
-464 461 0
463 464 -461 0
57 136 -466 0
-57 136 466 0
57 -136 466 0
-57 -136 -466 0
466 461 -215 0
-466 461 215 0
466 -461 215 0
-466 -461 -215 0
461 -467 0
466 -467 0
-461 -466 467 0
136 -468 0
57 -468 0
-136 -57 468 0
-467 465 0
-468 465 0
467 468 -465 0
58 137 -470 0
-58 137 470 0
58 -137 470 0
-58 -137 -470 0
470 465 -216 0
-470 465 216 0
470 -465 216 0
-470 -465 -216 0
465 -471 0
470 -471 0
-465 -470 471 0
137 -472 0
58 -472 0
-137 -58 472 0
-471 469 0
-472 469 0
471 472 -469 0
59 138 -474 0
-59 138 474 0
59 -138 474 0
-59 -138 -474 0
474 469 -217 0
-474 469 217 0
474 -469 217 0
-474 -469 -217 0
469 -475 0
474 -475 0
-469 -474 475 0
138 -476 0
59 -476 0
-138 -59 476 0
-475 473 0
-476 473 0
475 476 -473 0
60 139 -478 0
-60 139 478 0
60 -139 478 0
-60 -139 -478 0
478 473 -218 0
-478 473 218 0
478 -473 218 0
-478 -473 -218 0
473 -479 0
478 -479 0
-473 -478 479 0
139 -480 0
60 -480 0
-139 -60 480 0
-479 477 0
-480 477 0
479 480 -477 0
61 140 -482 0
-61 140 482 0
61 -140 482 0
-61 -140 -482 0
482 477 -219 0
-482 477 219 0
482 -477 219 0
-482 -477 -219 0
477 -483 0
482 -483 0
-477 -482 483 0
140 -484 0
61 -484 0
-140 -61 484 0
-483 481 0
-484 481 0
483 484 -481 0
62 141 -486 0
-62 141 486 0
62 -141 486 0
-62 -141 -486 0
486 481 -220 0
-486 481 220 0
486 -481 220 0
-486 -481 -220 0
481 -487 0
486 -487 0
-481 -486 487 0
141 -488 0
62 -488 0
-141 -62 488 0
-487 485 0
-488 485 0
487 488 -485 0
63 142 -490 0
-63 142 490 0
63 -142 490 0
-63 -142 -490 0
490 485 -221 0
-490 485 221 0
490 -485 221 0
-490 -485 -221 0
485 -491 0
490 -491 0
-485 -490 491 0
142 -492 0
63 -492 0
-142 -63 492 0
-491 489 0
-492 489 0
491 492 -489 0
64 143 -494 0
-64 143 494 0
64 -143 494 0
-64 -143 -494 0
494 489 -222 0
-494 489 222 0
494 -489 222 0
-494 -489 -222 0
489 -495 0
494 -495 0
-489 -494 495 0
143 -496 0
64 -496 0
-143 -64 496 0
-495 493 0
-496 493 0
495 496 -493 0
65 144 -498 0
-65 144 498 0
65 -144 498 0
-65 -144 -498 0
498 493 -223 0
-498 493 223 0
498 -493 223 0
-498 -493 -223 0
493 -499 0
498 -499 0
-493 -498 499 0
144 -500 0
65 -500 0
-144 -65 500 0
-499 497 0
-500 497 0
499 500 -497 0
66 145 -502 0
-66 145 502 0
66 -145 502 0
-66 -145 -502 0
502 497 -224 0
-502 497 224 0
502 -497 224 0
-502 -497 -224 0
497 -503 0
502 -503 0
-497 -502 503 0
145 -504 0
66 -504 0
-145 -66 504 0
-503 501 0
-504 501 0
503 504 -501 0
67 146 -506 0
-67 146 506 0
67 -146 506 0
-67 -146 -506 0
506 501 -225 0
-506 501 225 0
506 -501 225 0
-506 -501 -225 0
501 -507 0
506 -507 0
-501 -506 507 0
146 -508 0
67 -508 0
-146 -67 508 0
-507 505 0
-508 505 0
507 508 -505 0
68 147 -510 0
-68 147 510 0
68 -147 510 0
-68 -147 -510 0
510 505 -226 0
-510 505 226 0
510 -505 226 0
-510 -505 -226 0
505 -511 0
510 -511 0
-505 -510 511 0
147 -512 0
68 -512 0
-147 -68 512 0
-511 509 0
-512 509 0
511 512 -509 0
69 148 -514 0
-69 148 514 0
69 -148 514 0
-69 -148 -514 0
514 509 -227 0
-514 509 227 0
514 -509 227 0
-514 -509 -227 0
509 -515 0
514 -515 0
-509 -514 515 0
148 -516 0
69 -516 0
-148 -69 516 0
-515 513 0
-516 513 0
515 516 -513 0
70 149 -518 0
-70 149 518 0
70 -149 518 0
-70 -149 -518 0
518 513 -228 0
-518 513 228 0
518 -513 228 0
-518 -513 -228 0
513 -519 0
518 -519 0
-513 -518 519 0
149 -520 0
70 -520 0
-149 -70 520 0
-519 517 0
-520 517 0
519 520 -517 0
71 150 -522 0
-71 150 522 0
71 -150 522 0
-71 -150 -522 0
522 517 -229 0
-522 517 229 0
522 -517 229 0
-522 -517 -229 0
517 -523 0
522 -523 0
-517 -522 523 0
150 -524 0
71 -524 0
-150 -71 524 0
-523 521 0
-524 521 0
523 524 -521 0
72 151 -526 0
-72 151 526 0
72 -151 526 0
-72 -151 -526 0
526 521 -230 0
-526 521 230 0
526 -521 230 0
-526 -521 -230 0
521 -527 0
526 -527 0
-521 -526 527 0
151 -528 0
72 -528 0
-151 -72 528 0
-527 525 0
-528 525 0
527 528 -525 0
73 152 -530 0
-73 152 530 0
73 -152 530 0
-73 -152 -530 0
530 525 -231 0
-530 525 231 0
530 -525 231 0
-530 -525 -231 0
525 -531 0
530 -531 0
-525 -530 531 0
152 -532 0
73 -532 0
-152 -73 532 0
-531 529 0
-532 529 0
531 532 -529 0
74 153 -534 0
-74 153 534 0
74 -153 534 0
-74 -153 -534 0
534 529 -232 0
-534 529 232 0
534 -529 232 0
-534 -529 -232 0
529 -535 0
534 -535 0
-529 -534 535 0
153 -536 0
74 -536 0
-153 -74 536 0
-535 533 0
-536 533 0
535 536 -533 0
75 154 -538 0
-75 154 538 0
75 -154 538 0
-75 -154 -538 0
538 533 -233 0
-538 533 233 0
538 -533 233 0
-538 -533 -233 0
533 -539 0
538 -539 0
-533 -538 539 0
154 -540 0
75 -540 0
-154 -75 540 0
-539 537 0
-540 537 0
539 540 -537 0
76 155 -542 0
-76 155 542 0
76 -155 542 0
-76 -155 -542 0
542 537 -234 0
-542 537 234 0
542 -537 234 0
-542 -537 -234 0
537 -543 0
542 -543 0
-537 -542 543 0
155 -544 0
76 -544 0
-155 -76 544 0
-543 541 0
-544 541 0
543 544 -541 0
77 156 -546 0
-77 156 546 0
77 -156 546 0
-77 -156 -546 0
546 541 -235 0
-546 541 235 0
546 -541 235 0
-546 -541 -235 0
541 -547 0
546 -547 0
-541 -546 547 0
156 -548 0
77 -548 0
-156 -77 548 0
-547 545 0
-548 545 0
547 548 -545 0
78 157 -550 0
-78 157 550 0
78 -157 550 0
-78 -157 -550 0
550 545 -236 0
-550 545 236 0
550 -545 236 0
-550 -545 -236 0
545 -551 0
550 -551 0
-545 -550 551 0
157 -552 0
78 -552 0
-157 -78 552 0
-551 549 0
-552 549 0
551 552 -549 0
79 158 -553 0
-79 158 553 0
79 -158 553 0
-79 -158 -553 0
553 549 -237 0
-553 549 237 0
553 -549 237 0
-553 -549 -237 0
549 -554 0
553 -554 0
-549 -553 554 0
158 -555 0
79 -555 0
-158 -79 555 0
-554 238 0
-555 238 0
554 555 -238 0
